189
0 26 25 102 31 164 98 62 16 162 
113 64 123 168 60 3 173 141 73 74 
115 6 82 93 33 119 158 140 85 125 
83 61 187 20 186 17 169 79 52 55 
130 117 13 118 88 42 96 81 109 78 
43 103 29 182 143 126 2 147 27 57 
166 7 58 68 180 157 38 53 144 45 
151 44 34 153 80 75 41 23 159 72 
156 178 90 172 135 8 4 129 89 137 
66 36 12 40 167 105 14 154 9 112 
177 131 124 179 19 49 188 138 107 106 
146 170 48 91 110 122 67 149 128 145 
21 87 15 121 95 18 152 86 176 150 
59 139 184 22 111 99 148 104 133 30 
47 116 161 63 142 185 175 32 71 183 
134 155 10 46 171 70 35 132 100 84 
65 56 181 174 39 77 11 28 120 136 
24 69 165 51 97 101 1 114 76 54 
163 160 108 50 94 127 92 37 5 
